outputs/case_42.model.txt
shareholding_percentage_post_establishment = 923/100
approval_granted = False
shareholding_percentage = 923/100
shareholding_declaration_post_establishment = True
establishment_applied = False
shareholding_accumulated_change_percentage = 0
establishment_required = False
qualified_condition_met = False
shareholding_increased = False
disposal_ordered = True
shareholding_declaration_conversion = False
disposal_completed = True
shareholding_percentage_conversion = 0
pledge_exception_active = False
shareholding_percentage_pre_2008 = 0
violation_5 = False
shareholding_pledge_prohibited = False
violation_4 = False
violation_3 = False
shareholding_approval_obtained = True
violation_2 = False
shareholding_no_increase_if_not_qualified = True
pledge_set = False
violation_1 = False
shareholding_approval_required = False
shareholding_excess_disposal_not_done = False
violation_6 = False
shareholding_approval_not_obtained = False
shareholding_excess_disposal_ordered = True
shareholding_declaration_required = True
penalty = False
shareholding_excess_no_voting_right = False
reporting_and_announcement_compliance = True
shareholding_declaration_pre_2008 = False
shareholding_declaration_post_establishment_accum_change = 0